
#######################################################################
#
#                 Cambridge Crystallographic Data Centre
#                                CCDC
#
#######################################################################
#
# If this CIF has been generated from an entry in the Cambridge
# Structural Database, then it will include bibliographic, chemical,
# crystal, experimental, refinement or atomic coordinate data resulting
# from the CCDC's data processing and validation procedures.
#
#######################################################################

data_CSD_CIF_GUPMOT
_audit_creation_date 2001-04-11
_audit_creation_method CSD-ConQuest-V1
_database_code_CSD GUPMOT
_database_code_depnum_ccdc_archive 'CCDC 139213'
_chemical_formula_sum 'C18 H15 Mo1 N3 O3'
_chemical_formula_moiety
;
C18 H15 Mo1 N3 O3
;
_journal_coden_Cambridge 1088
_journal_volume 2000
_journal_year 2000
_journal_page_first 1765
_journal_name_full 'Synlett '
loop_
_publ_author_name
"A.Kuhl"
"J.A.Christopher"
"L.J.Farrugia"
"P.J.Kocienski"
_chemical_name_systematic
;
Tricarbonyl-tripyridine-molybdenum
;
_cell_volume   7162.657
_exptl_crystal_colour 'orange'
_exptl_crystal_density_diffrn 1.548
_exptl_special_details
;
air-sensitive

;
_exptl_crystal_description 'prism'
_exptl_crystal_preparation 'pyridine'
_diffrn_ambient_temperature ?
_diffrn_special_details
;
The study was carried out at room temperature,in the range 283-303K
Pseudo-merohedrally twinned crystals with 2 components in the ratio 0.45
;
#These two values have been output from a single CSD field.
_refine_ls_R_factor_gt 0.0445
_refine_ls_wR_factor_gt 0.0445
_symmetry_cell_setting monoclinic
_symmetry_space_group_name_H-M 'P 21/a'
_symmetry_Int_Tables_number 14
loop_
_symmetry_equiv_pos_site_id
_symmetry_equiv_pos_as_xyz
1 x,y,z
2 1/2-x,1/2+y,-z
3 -x,-y,-z
4 -1/2+x,-1/2-y,z
_cell_length_a 16.6995(13)
_cell_length_b 13.7680(9)
_cell_length_c 31.153(4)
_cell_angle_alpha 90
_cell_angle_beta 90.029(8)
_cell_angle_gamma 90
_cell_formula_units_Z 16
loop_
_atom_type_symbol
_atom_type_radius_bond
C 0.68
H 0.23
Mo 1.47
N 0.68
O 0.68
loop_
_atom_site_label
_atom_site_type_symbol
_atom_site_fract_x
_atom_site_fract_y
_atom_site_fract_z
Mo1 Mo 0.20036(3) 0.21911(4) 0.43323(2)
O1 O 0.2871(4) 0.0765(5) 0.3723(2)
O2 O 0.2806(4) 0.3846(5) 0.3817(2)
O3 O 0.3632(3) 0.2161(5) 0.4813(2)
C1 C 0.2511(5) 0.1289(6) 0.3942(3)
C2 C 0.2487(4) 0.3201(6) 0.4006(3)
C3 C 0.3005(5) 0.2168(5) 0.4643(2)
N1 N 0.1444(3) 0.0966(4) 0.47606(19)
C4 C 0.1395(5) 0.1041(6) 0.5187(3)
H1 H 0.15510 0.16210 0.53150
C5 C 0.1124(6) 0.0305(7) 0.5446(3)
H2 H 0.10800 0.04000 0.57410
C6 C 0.0924(5) -0.0553(6) 0.5271(3)
H3 H 0.07590 -0.10650 0.54450
C7 C 0.0964(4) -0.0667(5) 0.4837(3)
H4 H 0.08150 -0.12480 0.47070
C8 C 0.1233(4) 0.0108(5) 0.4596(2)
H5 H 0.12690 0.00280 0.43010
N2 N 0.0801(3) 0.2326(5) 0.3968(2)
C9 C 0.0369(5) 0.1559(7) 0.3823(3)
H6 H 0.05450 0.09370 0.38910
C10 C -0.0314(5) 0.1651(8) 0.3581(3)
H7 H -0.05800 0.11040 0.34790
C11 C -0.0594(5) 0.2555(7) 0.3492(4)
H8 H -0.10600 0.26360 0.33330
C12 C -0.0182(6) 0.3344(8) 0.3641(3)
H9 H -0.03690 0.39680 0.35870
C13 C 0.0503(6) 0.3210(8) 0.3869(3)
H10 H 0.07820 0.37560 0.39620
N3 N 0.1398(3) 0.3256(4) 0.47988(19)
C14 C 0.1807(5) 0.4015(5) 0.4938(3)
H11 H 0.23220 0.41060 0.48320
C15 C 0.1520(5) 0.4677(6) 0.5230(3)
H12 H 0.18350 0.51960 0.53180
C16 C 0.0761(5) 0.4559(6) 0.5388(3)
H13 H 0.05530 0.49850 0.55910
C17 C 0.0323(5) 0.3799(6) 0.5238(3)
H14 H -0.01990 0.37080 0.53340
C18 C 0.0651(4) 0.3154(6) 0.4940(3)
H15 H 0.03410 0.26420 0.48380
Mo2 Mo 0.20312(4) 0.22984(5) 0.93222(2)
O4 O 0.2789(4) 0.3906(6) 0.8759(2)
O5 O 0.2836(3) 0.0816(5) 0.8717(2)
O6 O 0.3677(3) 0.2253(5) 0.9785(2)
C19 C 0.2505(5) 0.3306(7) 0.8971(3)
C20 C 0.2520(5) 0.1358(7) 0.8932(3)
C21 C 0.3047(5) 0.2269(6) 0.9622(3)
N4 N 0.1493(4) 0.1089(5) 0.97616(19)
C22 C 0.1195(4) 0.0254(5) 0.9606(2)
H16 H 0.11610 0.01800 0.93090
C23 C 0.0935(5) -0.0503(6) 0.9863(3)
H17 H 0.07310 -0.10670 0.97400
C24 C 0.0983(5) -0.0411(6) 1.0303(3)
H18 H 0.08250 -0.09100 1.04850
C25 C 0.1268(6) 0.0431(8) 1.0455(3)
H19 H 0.12810 0.05280 1.07500
C26 C 0.1541(5) 0.1158(7) 1.0188(3)
H20 H 0.17660 0.17120 1.03090
N5 N 0.0825(4) 0.2445(4) 0.8973(3)
C27 C 0.0476(6) 0.1704(8) 0.8755(3)
H21 H 0.07160 0.10940 0.87650
C28 C -0.0219(6) 0.1814(8) 0.8520(4)
H22 H -0.04340 0.12820 0.83760
C29 C -0.0588(5) 0.2676(9) 0.8495(4)
H23 H -0.10640 0.27470 0.83430
C30 C -0.0245(5) 0.3445(7) 0.8700(3)
H24 H -0.04770 0.40580 0.86820
C31 C 0.0439(5) 0.3308(7) 0.8929(3)
H25 H 0.06580 0.38460 0.90670
N6 N 0.1426(3) 0.3315(4) 0.98032(19)
C32 C 0.1832(5) 0.4078(5) 0.9955(3)
H26 H 0.23430 0.41950 0.98480
C33 C 0.1524(6) 0.4707(7) 1.0264(3)
H27 H 0.18300 0.52230 1.03660
C34 C 0.0767(7) 0.4553(7) 1.0417(3)
H28 H 0.05500 0.49600 1.06250
C35 C 0.0339(5) 0.3796(7) 1.0261(3)
H29 H -0.01820 0.36920 1.03560
C36 C 0.0675(4) 0.3172(7) 0.9959(3)
H30 H 0.03780 0.26440 0.98610
Mo3 Mo 0.56096(3) 0.27831(5) 0.18291(2)
O7 O 0.3976(3) 0.2790(5) 0.2290(2)
O8 O 0.4827(4) 0.1125(6) 0.1313(2)
O9 O 0.4760(4) 0.4194(5) 0.1197(2)
C37 C 0.4596(4) 0.2787(5) 0.2123(2)
C38 C 0.5145(4) 0.1743(6) 0.1502(2)
C39 C 0.5097(4) 0.3666(6) 0.1436(3)
N7 N 0.6216(3) 0.1748(4) 0.23085(18)
C40 C 0.5791(5) 0.1014(6) 0.2477(3)
H31 H 0.52690 0.09250 0.23810
C41 C 0.6075(7) 0.0394(7) 0.2780(3)
H32 H 0.57560 -0.01020 0.28880
C42 C 0.6848(6) 0.0517(7) 0.2921(3)
H33 H 0.70590 0.01060 0.31290
C43 C 0.7308(5) 0.1250(6) 0.2753(3)
H34 H 0.78330 0.13470 0.28430
C44 C 0.6969(4) 0.1832(6) 0.2449(3)
H35 H 0.72840 0.23220 0.23320
N8 N 0.6149(3) 0.4014(4) 0.22528(19)
C45 C 0.6187(5) 0.3934(6) 0.2684(3)
H36 H 0.60380 0.33460 0.28080
C46 C 0.6432(6) 0.4666(8) 0.2949(3)
H37 H 0.64390 0.45750 0.32450
C47 C 0.6668(4) 0.5535(6) 0.2776(3)
H38 H 0.68530 0.60360 0.29500
C48 C 0.6622(5) 0.5645(6) 0.2337(3)
H39 H 0.67590 0.62320 0.22090
C49 C 0.6372(4) 0.4878(5) 0.2092(2)
H40 H 0.63560 0.49590 0.17950
N9 N 0.6825(3) 0.2640(5) 0.1461(3)
C50 C 0.7068(6) 0.1760(8) 0.1357(3)
H41 H 0.67710 0.12250 0.14450
C51 C 0.7758(6) 0.1615(8) 0.1117(4)
H42 H 0.79040 0.09900 0.10360
C52 C 0.8224(5) 0.2386(8) 0.1000(4)
H43 H 0.87020 0.22900 0.08530
C53 C 0.7975(5) 0.3294(8) 0.1102(3)
H44 H 0.82630 0.38380 0.10150
C54 C 0.7269(5) 0.3386(7) 0.1343(3)
H45 H 0.71070 0.40050 0.14250
Mo4 Mo 0.53684(3) 0.22897(5) 0.68180(2)
O10 O 0.4571(3) 0.0789(4) 0.6217(2)
O11 O 0.4556(4) 0.3879(5) 0.6263(2)
O12 O 0.3743(3) 0.2149(5) 0.7286(2)
C55 C 0.4889(5) 0.1368(6) 0.6433(3)
C56 C 0.4879(4) 0.3296(6) 0.6473(3)
C57 C 0.4366(5) 0.2197(5) 0.7124(3)
N10 N 0.5945(4) 0.1088(5) 0.72481(19)
C58 C 0.5927(5) 0.1148(7) 0.7680(3)
H46 H 0.57510 0.17230 0.78040
C59 C 0.6157(6) 0.0402(7) 0.7944(3)
H47 H 0.61310 0.04730 0.82400
C60 C 0.6421(4) -0.0443(6) 0.7769(3)
H48 H 0.65790 -0.09580 0.79430
C61 C 0.6452(4) -0.0521(5) 0.7330(3)
H49 H 0.66310 -0.10900 0.72020
C62 C 0.6216(4) 0.0251(5) 0.7084(2)
H50 H 0.62450 0.01920 0.67870
N11 N 0.6580(3) 0.2465(4) 0.6445(3)
C63 C 0.6909(5) 0.3337(8) 0.6410(3)
H51 H 0.66590 0.38560 0.65450
C64 C 0.7603(6) 0.3516(7) 0.6183(3)
H52 H 0.78200 0.41370 0.61690
C65 C 0.7961(5) 0.2753(9) 0.5979(4)
H53 H 0.84320 0.28430 0.58240
C66 C 0.7618(6) 0.1861(8) 0.6006(4)
H54 H 0.78450 0.13290 0.58680
C67 C 0.6930(5) 0.1762(7) 0.6241(3)
H55 H 0.66980 0.11490 0.62560
N12 N 0.5972(4) 0.3339(4) 0.72976(19)
C68 C 0.5571(4) 0.4110(5) 0.7446(3)
H56 H 0.50570 0.42200 0.73420
C69 C 0.5874(5) 0.4745(6) 0.7740(3)
H57 H 0.55680 0.52650 0.78370
C70 C 0.6639(6) 0.4601(8) 0.7892(3)
H58 H 0.68640 0.50310 0.80890
C71 C 0.7060(5) 0.3819(6) 0.7750(3)
H59 H 0.75740 0.36960 0.78520
C72 C 0.6712(5) 0.3219(6) 0.7454(2)
H60 H 0.70080 0.26930 0.73550
#END
