TITL moco in Pnma; 0.2 x 0.3 x 0.3 mm; -110; 4.5 - 55.0 deg.;
TITL [Mo(CO)6]; Hexacarbonyl molybdenum(0)
CELL 0.71073  11.841  11.295   6.404  90.00  90.00  90.00
ZERR    4.00   0.001   0.001   0.001   0.00   0.00   0.00
LATT  1
SYMM .5-X, -Y, .5+Z
SYMM -X, .5+Y, -Z
SYMM .5+X, .5-Y, .5-Z
SFAC C O MO
UNIT 24 24 4

REM fertig: 10.02.2015; F. Olbrich
ACTA
TEMP -110
SIZE 0.2 0.3 0.3

L.S. 3
PLAN -5
OMIT -4 55
OMIT 0 11 5
OMIT 0 3 1

WGHT    0.030500
EXTI    0.002205
FVAR       0.40333
MO1   3    0.126583    0.750000    0.936906    10.50000    0.01788    0.01863 =
         0.01689    0.00000   -0.00020    0.00000
C1    1    0.023138    0.622033    0.812181    11.00000    0.02396    0.02727 =
         0.02647    0.00471   -0.00075    0.00001
O1    2   -0.034398    0.551410    0.744382    11.00000    0.04033    0.03729 =
         0.04373   -0.00342   -0.00740   -0.01173
C2    1    0.228069    0.880031    1.062812    11.00000    0.02215    0.02773 =
         0.02581    0.00107   -0.00012    0.00313
O2    2    0.282935    0.951791    1.132210    11.00000    0.03590    0.03641 =
         0.05125   -0.01467   -0.00133   -0.00893
C3    1    0.221742    0.750000    0.668782    10.50000    0.02289    0.03001 =
         0.02144    0.00000   -0.00211    0.00000
O3    2    0.274825    0.750000    0.520305    10.50000    0.03945    0.05742 =
         0.02803    0.00000    0.00964    0.00000
C4    1    0.031278    0.750000    1.207105    10.50000    0.02437    0.02720 =
         0.02100    0.00000    0.00012    0.00000
O4    2   -0.020228    0.750000    1.355570    10.50000    0.03817    0.05330 =
         0.02623    0.00000    0.00585    0.00000
HKLF 4

REM  [Mo(CO)6]; Hexacarbonyl molybdenum(0)
REM R1 =  0.0279 for     814 Fo > 4sig(Fo)  and  0.0371 for all    1033 data
REM     68 parameters refined using      0 restraints

END

WGHT      0.0375      0.0000

REM Highest difference peak  0.441,  deepest hole -0.747,  1-sigma level  0.108
Q1    1   0.1240  0.6727  0.8390  11.00000  0.05    0.44
Q2    1   0.1304  0.6789  1.0464  11.00000  0.05    0.42
Q3    1  -0.1140  0.7500  1.4568  10.50000  0.05    0.42
Q4    1   0.1333  0.6248  0.6557  11.00000  0.05    0.41
Q5    1   0.1589  0.6719  1.0569  11.00000  0.05    0.41
